abilene ALL intd k=5: arcs=30, intd=30, γ=1, w=16.8979

============================================================
Nominal SP (MILP)
============================================================
Set parameter Username
Set parameter LicenseID to value 2742039
Academic license - for non-commercial use only - expires 2026-11-20
Building 2SP model...
  Nodes: 12, Arcs: 30, Scenarios: 20
  Interdictable arcs: 31
  Dummy arc index: 31
  Parameters: ϕU = 2.0, γ = 1, w = 16.8979, v = 1.0
┌ Warning: Axis contains one element: 1. If intended, you can safely ignore this warning. To explicitly pass the axis with one element, pass `[1]` instead of `1`.
└ @ JuMP.Containers C:\Users\user\.julia\packages\JuMP\i68GU\src\Containers\DenseAxisArray.jl:185
  ✓ Decision variables created
  ✓ Constraints (14a-14c) added
  Adding Big-M constraints (14j, 14k)...
  ✓ Big-M constraints (14j, 14k) added
  ✓ Budget constraint (14l) added
  Adding dual constraints (14m-14p)...
  ✓ Dual constraints (14m-14p) added for all scenarios
  ✓ Linearization constraints (14q) added

Model construction summary:
  - Variables: 108592
  - Constraints: 113752
  - Binary variables: 30
================================================================================
Set parameter OutputFlag to value 1
Set parameter OutputFlag to value 1
Gurobi Optimizer version 13.0.0 build v13.0.0rc1 (win64 - Windows 10.0 (19045.2))

CPU model: AMD Ryzen 9 5900X 12-Core Processor, instruction set [SSE2|AVX|AVX2]
Thread count: 12 physical cores, 24 logical processors, using up to 24 threads

Optimize a model with 117313 rows, 108592 columns and 609092 nonzeros (Min)
Model fingerprint: 0x18f892fb
Model has 41 linear objective coefficients
Variable types: 108562 continuous, 30 integer (30 binary)
Coefficient statistics:
  Matrix range     [1e+00, 3e+02]
  Objective range  [5e-02, 2e+01]
  Bounds range     [2e+00, 2e+00]
  RHS range        [1e-03, 2e+00]
Found heuristic solution: objective 1.889790e+09
Presolve removed 28565 rows and 38115 columns
Presolve time: 1.07s
Presolved: 88748 rows, 70477 columns, 300620 nonzeros
Found heuristic solution: objective 291462.23274
Variable types: 70449 continuous, 28 integer (28 binary)
Deterministic concurrent LP optimizer: primal and dual simplex
Showing primal log only...


Root simplex log...

Iteration    Objective       Primal Inf.    Dual Inf.      Time
   69379    1.3567638e+04   0.000000e+00   2.463823e+04      5s
   84097    5.1842824e+03   0.000000e+00   2.215837e+04     10s
Concurrent spin time: 0.00s

Solved with dual simplex

Root simplex log...

Iteration    Objective       Primal Inf.    Dual Inf.      Time
   41607   -3.4784739e+01   0.000000e+00   0.000000e+00     15s

Root relaxation: objective -3.478474e+01, 41607 iterations, 13.48 seconds (38.55 work units)

    Nodes    |    Current Node    |     Objective Bounds      |     Work
 Expl Unexpl |  Obj  Depth IntInf | Incumbent    BestBd   Gap | It/Node Time

     0     0  -34.78474    0   15 291462.233  -34.78474   100%     -   15s
     0     0  -34.65461    0   16 291462.233  -34.65461   100%     -   32s
     0     0  -34.63076    0   17 291462.233  -34.63076   100%     -   32s
     0     0  -34.55011    0   20 291462.233  -34.55011   100%     -   37s
     0     0  -34.54975    0   21 291462.233  -34.54975   100%     -   37s
     0     0  -32.43615    0   20 291462.233  -32.43615   100%     -   45s
     0     0  -32.43615    0   21 291462.233  -32.43615   100%     -   53s
H    0     0                      22.4722200  -32.43615   244%     -   57s
     0     0  -32.24282    0   20   22.47222  -32.24282   243%     -   58s
     0     0  -32.24282    0   20   22.47222  -32.24282   243%     -   66s
     0     0  -32.24282    0   21   22.47222  -32.24282   243%     -   68s
     0     0  -32.24282    0   21   22.47222  -32.24282   243%     -   69s
     0     0  -32.24282    0   21   22.47222  -32.24282   243%     -   69s
     0     0  -32.24282    0   21   22.47222  -32.24282   243%     -   71s
     0     0  -32.24282    0   21   22.47222  -32.24282   243%     -   71s
     0     0  -32.24282    0   20   22.47222  -32.24282   243%     -   72s
     0     0  -32.24282    0   20   22.47222  -32.24282   243%     -   73s
     0     0  -32.24282    0   20   22.47222  -32.24282   243%     -   73s
     0     0  -32.24282    0   23   22.47222  -32.24282   243%     -   77s
     0     0  -32.24282    0   21   22.47222  -32.24282   243%     -   79s
     0     0  -31.42366    0   21   22.47222  -31.42366   240%     -   83s
     0     0  -31.42366    0   21   22.47222  -31.42366   240%     -   84s
     0     0  -31.42366    0   21   22.47222  -31.42366   240%     -   88s
     0     0  -31.42366    0   21   22.47222  -31.42366   240%     -   88s
     0     0  -31.42366    0   21   22.47222  -31.42366   240%     -   89s
     0     0  -31.42366    0   22   22.47222  -31.42366   240%     -   89s
     0     0  -31.42366    0   21   22.47222  -31.42366   240%     -   90s
H    0     0                      20.4008503  -31.42366   254%     -   93s
     0     0  -31.42366    0   21   20.40085  -31.42366   254%     -   93s
     0     0  -31.42366    0   22   20.40085  -31.42366   254%     -   95s
     0     0  -31.42366    0   20   20.40085  -31.42366   254%     -   97s
     0     0  -31.42366    0   20   20.40085  -31.42366   254%     -  100s
     0     0  -31.42366    0   20   20.40085  -31.42366   254%     -  101s
     0     2  -31.42366    0   19   20.40085  -31.42366   254%     -  106s
     2     2  -31.42366    1   21   20.40085  -31.42366   254%  5385  113s
     3     1     cutoff    2        20.40085  -31.42366   254%  7039  117s
     4     2  -27.81115    2   18   20.40085  -27.81115   236%  5730  122s
     5     1     cutoff    3        20.40085  -27.79793   236%  6458  128s
     7     2  -20.19473    4   15   20.40085  -20.19473   199%  5865  131s
    11     2  -19.89776    6   11   20.40085  -19.89776   198%  6960  138s
*   12     2               6      20.1766504  -19.57723   197%  7289  138s
    15     2   -6.07296    8    9   20.17665  -15.58721   177%  6796  140s
*   16     2               8      20.1439444   -6.03658   130%  6790  140s

Cutting planes:
  MIR: 332
  Flow cover: 126
  RLT: 23

Explored 23 nodes (223049 simplex iterations) in 141.65 seconds (455.89 work units)
Thread count was 24 (of 24 available processors)

Solution count 6: 20.1439 20.1767 20.4009 ... 1.88979e+09

Optimal solution found (tolerance 1.00e-04)
Best objective 2.014394442843e+01, best bound 2.014394442843e+01, gap 0.0000%

User-callback calls 11317, time in user-callback 0.00 sec

Nominal SP: Z₀=20.143944, time=142.17s
x_nom arcs = [11]

============================================================
Robust DRO (ε=1.0)
============================================================
[ Info: Inexact mode: 2/3 iters use OptimalityTarget=1 (local opt)
[ Info: MW cut enabled: core point x_core (γ/31 per interdictable arc)
Set parameter Username
Set parameter LicenseID to value 2742039
Academic license - for non-commercial use only - expires 2026-11-20
[ Info: Min-cut VI enabled: Phase 1 (all S) added
Set parameter Username
Set parameter LicenseID to value 2742039
Academic license - for non-commercial use only - expires 2026-11-20
Set parameter Username
Set parameter LicenseID to value 2742039
Academic license - for non-commercial use only - expires 2026-11-20
Set parameter Username
Set parameter LicenseID to value 2742039
Academic license - for non-commercial use only - expires 2026-11-20
Set parameter Username
Set parameter LicenseID to value 2742039
Academic license - for non-commercial use only - expires 2026-11-20
Set parameter Username
Set parameter LicenseID to value 2742039
Academic license - for non-commercial use only - expires 2026-11-20
[ Info: Mini-Benders enabled: max_mini_iter=5

=== True-DRO Benders iter 1 ===
  OMP: t₀=8.409272, UB=Inf, gap=NaN, x=[0, 0, 0, 0, 1, 0, 0, 0, 0, 0, 0, 0, 0, 0, 0, 0, 0, 0, 0, 0, 0, 0, 0, 0, 0, 0, 0, 0, 0, 0] (0.047s)
  Sub: Z₀=22.052367 [LOCAL], α=[0.000,0.000,0.000,0.000,11.466,0.000,1.120,0.252,0.000,0.000,0.000,0.000,0.000,0.000,1.829,0.000,0.000,0.000,0.000,0.000,0.000,0.000,0.000,0.000,0.000,0.548,0.930,0.752,0.000,0.000]
  Iter 1: LB=8.409272  UB=Inf  gap=NaN
  Cut: intercept=-273.685137, π_x_range=[-421.1946, 295.7375]
  Mini-Benders[1] (mw): LB=9.760872, Z₀(α*)=-7.844828, intercept=14.830599 (0.959s) [OMP=0.065 ISP-L=0.123 ISP-F=0.179 MW-L=0.204 MW-F=0.203]
  Mini-Benders[2] (mw): LB=9.760872, Z₀(α*)=-7.844828, intercept=14.830599 (0.113s) [OMP=0.038 ISP-L=0.004 ISP-F=0.017 MW-L=0.017 MW-F=0.036]
  Mini-Benders[3] (mw): LB=9.760872, Z₀(α*)=-7.844828, intercept=14.830599 (0.111s) [OMP=0.037 ISP-L=0.004 ISP-F=0.017 MW-L=0.022 MW-F=0.030]
  Mini-Benders[4]: LB stagnated, break
  α-step: Z₀=21.783011, α=[0.000,0.000,0.000,0.000,0.242,0.000,0.323,10.956,0.000,0.000,0.000,0.000,0.000,0.000,1.623,0.000,0.000,0.000,0.000,0.024,0.000,0.000,0.000,0.000,0.000,2.319,0.679,0.733,0.000,0.000]
  Alt-Benders[1] (mw): LB=9.942366, Z₀(α*)=2.638355, intercept=10.722449 (0.139s) [OMP=0.066 ISP-L=0.004 ISP-F=0.016 MW-L=0.023 MW-F=0.030]
  Alt-Benders[2] (mw): LB=9.942366, Z₀(α*)=2.638355, intercept=10.722449 (0.115s) [OMP=0.044 ISP-L=0.004 ISP-F=0.016 MW-L=0.019 MW-F=0.030]
  Alt-Benders[3] (mw): LB=9.942366, Z₀(α*)=2.638355, intercept=10.722449 (0.108s) [OMP=0.044 ISP-L=0.004 ISP-F=0.016 MW-L=0.013 MW-F=0.030]
  Alt-Benders[4]: LB stagnated, break
  OMP re-solve: 0.000s

=== True-DRO Benders iter 2 ===
  OMP: t₀=9.942366, UB=Inf, gap=NaN, x=[0, 0, 0, 0, 0, 0, 0, 0, 0, 0, 0, 0, 0, 0, 0, 0, 0, 0, 0, 0, 0, 0, 0, 0, 0, 0, 1, 0, 0, 0] (0.000s)
  Sub: Z₀=22.376549 [LOCAL], α=[0.000,0.000,0.000,0.000,0.471,0.000,0.924,0.593,0.000,0.000,0.075,0.000,0.000,0.000,1.629,0.000,0.000,0.000,0.086,0.000,0.000,0.000,0.000,0.000,0.000,1.090,11.093,0.937,0.000,0.000]
  Iter 2: LB=9.942366  UB=Inf  gap=NaN
  Cut: intercept=-274.142421, π_x_range=[-420.6771, 296.5190]
  Mini-Benders[1] (mw): LB=10.201298, Z₀(α*)=21.829884, intercept=18.764174 (0.121s) [OMP=0.048 ISP-L=0.004 ISP-F=0.020 MW-L=0.021 MW-F=0.026]
  Mini-Benders[2] (mw): LB=10.679109, Z₀(α*)=-1.708083, intercept=16.776312 (0.147s) [OMP=0.077 ISP-L=0.004 ISP-F=0.019 MW-L=0.016 MW-F=0.029]
  Mini-Benders[3] (mw): LB=10.679109, Z₀(α*)=-1.708083, intercept=16.776312 (0.102s) [OMP=0.031 ISP-L=0.004 ISP-F=0.019 MW-L=0.016 MW-F=0.031]
  Mini-Benders[4] (mw): LB=10.679109, Z₀(α*)=-1.708083, intercept=16.776312 (0.099s) [OMP=0.031 ISP-L=0.003 ISP-F=0.019 MW-L=0.015 MW-F=0.028]
  Mini-Benders[5]: LB stagnated, break
  α-step: Z₀=21.740300, α=[0.000,0.000,0.000,0.000,1.266,0.000,8.614,0.310,0.000,0.000,0.000,0.000,0.000,0.000,1.328,0.000,0.000,0.000,0.000,0.000,0.000,0.000,0.000,0.000,0.000,1.558,1.942,1.880,0.000,0.000]
  Alt-Benders[1] (mw): LB=10.679109, Z₀(α*)=0.335292, intercept=17.628174 (0.127s) [OMP=0.057 ISP-L=0.004 ISP-F=0.018 MW-L=0.017 MW-F=0.029]
  Alt-Benders[2] (mw): LB=10.679109, Z₀(α*)=0.335292, intercept=17.628174 (0.101s) [OMP=0.031 ISP-L=0.003 ISP-F=0.018 MW-L=0.017 MW-F=0.030]
  Alt-Benders[3] (mw): LB=10.679109, Z₀(α*)=0.335292, intercept=17.628174 (0.101s) [OMP=0.031 ISP-L=0.003 ISP-F=0.018 MW-L=0.017 MW-F=0.030]
  Alt-Benders[4]: LB stagnated, break
  OMP re-solve: 0.000s

=== True-DRO Benders iter 3 ===
  OMP: t₀=10.679109, UB=Inf, gap=NaN, x=[0, 0, 0, 0, 0, 0, 0, 0, 0, 0, 0, 0, 0, 0, 1, 0, 0, 0, 0, 0, 0, 0, 0, 0, 0, 0, 0, 0, 0, 0] (0.000s)
  Sub: Z₀=23.759742, α=[0.000,0.000,0.000,0.000,0.000,0.000,1.852,0.000,0.000,0.000,0.000,0.000,0.000,0.000,11.205,0.000,0.000,0.000,0.000,0.000,0.000,0.000,0.000,0.000,0.000,2.352,0.737,0.753,0.000,0.000]
  Iter 3: LB=10.679109  UB=23.759742  gap=5.51e-01
  Cut: intercept=19.832433, π_x_range=[-41.0365, 3.9273]
  Sherali-Cut: intercept=19.832433, π_x_range=[-35.9615, 3.9273]
  Mini-Benders[1] (mw): LB=10.817723, Z₀(α*)=-4.713023, intercept=19.023819 (0.130s) [OMP=0.064 ISP-L=0.003 ISP-F=0.016 MW-L=0.017 MW-F=0.027]
  Mini-Benders[2] (mw): LB=10.817723, Z₀(α*)=-4.713023, intercept=19.023819 (0.098s) [OMP=0.033 ISP-L=0.003 ISP-F=0.016 MW-L=0.017 MW-F=0.027]
  Mini-Benders[3] (mw): LB=10.817723, Z₀(α*)=-4.713023, intercept=19.023819 (0.100s) [OMP=0.033 ISP-L=0.003 ISP-F=0.016 MW-L=0.017 MW-F=0.028]
  Mini-Benders[4]: LB stagnated, break
  α-step: Z₀=22.816084, α=[0.000,0.000,0.000,0.000,0.910,0.000,0.000,6.394,0.000,0.000,0.000,0.000,0.000,0.000,1.498,0.000,0.000,0.000,0.000,0.000,0.000,0.000,3.671,0.000,0.000,3.262,1.163,0.000,0.000,0.000]
  Alt-Benders[1] (mw): LB=10.817723, Z₀(α*)=14.468175, intercept=18.180372 (0.140s) [OMP=0.065 ISP-L=0.004 ISP-F=0.019 MW-L=0.020 MW-F=0.030]
  Alt-Benders[2] (mw): LB=11.417612, Z₀(α*)=4.631104, intercept=13.308000 (0.100s) [OMP=0.037 ISP-L=0.003 ISP-F=0.018 MW-L=0.014 MW-F=0.027]
  Alt-Benders[3] (mw): LB=11.417612, Z₀(α*)=4.631104, intercept=13.308000 (0.099s) [OMP=0.035 ISP-L=0.003 ISP-F=0.018 MW-L=0.014 MW-F=0.027]
  Alt-Benders[4] (mw): LB=11.417612, Z₀(α*)=4.631104, intercept=13.308000 (0.098s) [OMP=0.034 ISP-L=0.003 ISP-F=0.018 MW-L=0.015 MW-F=0.027]
  Alt-Benders[5]: LB stagnated, break
  OMP re-solve: 0.000s

=== True-DRO Benders iter 4 ===
  OMP: t₀=11.417612, UB=23.759742, gap=5.19e-01, x=[0, 0, 0, 0, 0, 0, 0, 0, 0, 0, 1, 0, 0, 0, 0, 0, 0, 0, 0, 0, 0, 0, 0, 0, 0, 0, 0, 0, 0, 0] (0.000s)
  Sub: Z₀=21.660239 [LOCAL], α=[0.000,0.000,0.000,0.000,0.231,0.000,1.364,0.518,0.000,0.000,10.234,0.000,0.000,0.000,1.443,0.000,0.000,0.000,0.199,0.000,0.000,0.000,0.000,0.000,0.000,0.818,1.236,0.854,0.000,0.000]
  Iter 4: LB=11.417612  UB=23.759742  gap=5.19e-01
  Cut: intercept=-271.375901, π_x_range=[-420.0043, 293.0361]
  Mini-Benders[1] (mw): LB=12.544287, Z₀(α*)=21.198817, intercept=18.036491 (0.120s) [OMP=0.049 ISP-L=0.004 ISP-F=0.020 MW-L=0.022 MW-F=0.023]
  Mini-Benders[2] (mw): LB=14.468173, Z₀(α*)=-3.157649, intercept=14.283209 (0.096s) [OMP=0.034 ISP-L=0.003 ISP-F=0.017 MW-L=0.010 MW-F=0.029]
  Mini-Benders[3] (mw): LB=14.468173, Z₀(α*)=-3.157649, intercept=14.283209 (0.089s) [OMP=0.027 ISP-L=0.003 ISP-F=0.017 MW-L=0.011 MW-F=0.029]
  Mini-Benders[4] (mw): LB=14.468173, Z₀(α*)=-3.157649, intercept=14.283209 (0.088s) [OMP=0.027 ISP-L=0.003 ISP-F=0.017 MW-L=0.010 MW-F=0.029]
  Mini-Benders[5]: LB stagnated, break
  α-step: Z₀=22.816084, α=[0.000,0.000,0.000,0.000,0.910,0.000,0.000,6.394,0.000,0.000,0.000,0.000,0.000,0.000,1.498,0.000,0.000,0.000,0.000,3.671,0.000,0.000,0.000,0.000,0.000,3.262,1.163,0.000,0.000,0.000]
  Alt-Benders[1] (mw): LB=18.782405, Z₀(α*)=-1.569189, intercept=15.673810 (0.109s) [OMP=0.043 ISP-L=0.004 ISP-F=0.016 MW-L=0.016 MW-F=0.028]
  Alt-Benders[2] (mw): LB=18.782405, Z₀(α*)=-1.569189, intercept=15.673810 (0.089s) [OMP=0.024 ISP-L=0.004 ISP-F=0.016 MW-L=0.016 MW-F=0.027]
  Alt-Benders[3] (mw): LB=18.782405, Z₀(α*)=-1.569189, intercept=15.673810 (0.088s) [OMP=0.024 ISP-L=0.004 ISP-F=0.016 MW-L=0.015 MW-F=0.028]
  Alt-Benders[4]: LB stagnated, break
  OMP re-solve: 0.000s

=== True-DRO Benders iter 5 ===
  OMP: t₀=18.782405, UB=23.759742, gap=2.09e-01, x=[0, 0, 0, 0, 0, 0, 0, 0, 0, 0, 0, 0, 0, 0, 0, 0, 0, 0, 0, 0, 0, 0, 0, 0, 0, 1, 0, 0, 0, 0] (0.000s)
  Sub: Z₀=22.250630 [LOCAL], α=[0.000,0.000,0.000,0.000,0.295,0.000,0.908,0.407,0.000,0.000,0.000,0.000,0.000,0.000,1.617,0.000,0.000,0.000,0.000,0.000,0.000,0.000,0.000,0.000,0.000,11.834,1.036,0.801,0.000,0.000]
  Iter 5: LB=18.782405  UB=23.759742  gap=2.09e-01
  Cut: intercept=-274.403298, π_x_range=[-421.2126, 296.6539]
  Mini-Benders[1] (mw): LB=18.782405, Z₀(α*)=17.441294, intercept=14.761073 (0.122s) [OMP=0.042 ISP-L=0.004 ISP-F=0.023 MW-L=0.018 MW-F=0.033]
  Mini-Benders[2] (mw): LB=18.782405, Z₀(α*)=17.441294, intercept=14.761073 (0.110s) [OMP=0.032 ISP-L=0.004 ISP-F=0.023 MW-L=0.018 MW-F=0.033]
  Mini-Benders[3]: LB stagnated, break
  α-step: Z₀=24.430022, α=[0.000,0.000,0.000,0.000,0.050,0.000,2.617,1.679,0.000,0.000,0.000,0.000,0.000,0.000,4.115,0.000,0.000,1.482,1.528,0.104,0.000,0.000,0.000,0.000,0.000,2.402,2.683,0.237,0.000,0.000]
  Alt-Benders[1] (mw): LB=18.979225, Z₀(α*)=23.981775, intercept=23.981774 (0.116s) [OMP=0.043 ISP-L=0.004 ISP-F=0.017 MW-L=0.017 MW-F=0.033]
  Alt-Benders[2] (mw): LB=21.198815, Z₀(α*)=9.838938, intercept=16.322440 (0.089s) [OMP=0.029 ISP-L=0.005 ISP-F=0.020 MW-L=0.009 MW-F=0.024]
  Alt-Benders[3] (mw): LB=21.198815, Z₀(α*)=9.838938, intercept=16.322440 (0.085s) [OMP=0.026 ISP-L=0.003 ISP-F=0.020 MW-L=0.011 MW-F=0.024]
  Alt-Benders[4] (mw): LB=21.198815, Z₀(α*)=9.838938, intercept=16.322440 (0.092s) [OMP=0.026 ISP-L=0.003 ISP-F=0.021 MW-L=0.014 MW-F=0.026]
  Alt-Benders[5]: LB stagnated, break
  OMP re-solve: 0.000s

=== True-DRO Benders iter 6 ===
  OMP: t₀=21.198815, UB=23.759742, gap=1.08e-01, x=[0, 0, 0, 0, 0, 0, 0, 0, 0, 0, 0, 0, 0, 0, 0, 0, 0, 0, 1, 0, 0, 0, 0, 0, 0, 0, 0, 0, 0, 0] (0.000s)
  Sub: Z₀=23.420931, α=[0.000,0.000,0.000,0.000,0.697,0.000,0.816,0.000,0.000,0.000,0.000,0.000,0.000,0.000,2.315,0.000,0.000,0.000,8.871,0.000,0.000,0.000,0.000,0.000,0.000,3.049,0.000,1.150,0.000,0.000]
  Iter 6: LB=21.198815  UB=23.420931  gap=9.49e-02
  Cut: intercept=18.497790, π_x_range=[-41.9293, 4.9231]
  Sherali-Cut: intercept=19.482418, π_x_range=[-38.4391, 3.9385]
  Mini-Benders[1] (mw): LB=21.660239, Z₀(α*)=17.407217, intercept=15.685445 (0.113s) [OMP=0.030 ISP-L=0.004 ISP-F=0.020 MW-L=0.022 MW-F=0.034]
  Mini-Benders[2] (mw): LB=21.660239, Z₀(α*)=17.407217, intercept=15.685445 (0.111s) [OMP=0.031 ISP-L=0.004 ISP-F=0.019 MW-L=0.021 MW-F=0.034]
  Mini-Benders[3] (mw): LB=21.660239, Z₀(α*)=17.407217, intercept=15.685445 (0.111s) [OMP=0.031 ISP-L=0.004 ISP-F=0.019 MW-L=0.021 MW-F=0.034]
  Mini-Benders[4]: LB stagnated, break
  α-step: Z₀=21.535613, α=[0.000,0.000,0.000,0.000,1.473,0.000,0.163,0.869,0.000,0.000,10.783,0.000,0.000,0.000,0.000,0.000,0.000,0.000,0.000,0.000,0.000,0.000,0.000,0.000,0.000,1.765,1.044,0.802,0.000,0.000]
┌ Warning: The addition operator has been used on JuMP expressions a large number of times. This warning is safe to ignore but may indicate that model generation is slower than necessary. For performance reasons, you should not add expressions in a loop. Instead of x += y, use add_to_expression!(x,y) to modify x in place. If y is a single variable, you may also use add_to_expression!(x, coef, y) for x += coef*y.
└ @ JuMP C:\Users\user\.julia\packages\JuMP\i68GU\src\operators.jl:282
  Alt-Benders[1] (mw): LB=21.660239, Z₀(α*)=21.553308, intercept=17.109617 (0.154s) [OMP=0.031 ISP-L=0.004 ISP-F=0.018 MW-L=0.062 MW-F=0.038]
  Alt-Benders[2] (mw): LB=21.660239, Z₀(α*)=21.553308, intercept=17.109617 (0.120s) [OMP=0.031 ISP-L=0.004 ISP-F=0.017 MW-L=0.019 MW-F=0.047]
  Alt-Benders[3] (mw): LB=21.660239, Z₀(α*)=21.553308, intercept=17.109617 (0.115s) [OMP=0.031 ISP-L=0.004 ISP-F=0.017 MW-L=0.017 MW-F=0.044]
  Alt-Benders[4]: LB stagnated, break
  OMP re-solve: 0.000s

=== True-DRO Benders iter 7 ===
  OMP: t₀=21.660239, UB=23.420931, gap=7.52e-02, x=[0, 0, 0, 0, 0, 0, 0, 0, 0, 0, 1, 0, 0, 0, 0, 0, 0, 0, 0, 0, 0, 0, 0, 0, 0, 0, 0, 0, 0, 0] (0.000s)
  Sub: Z₀=21.660239 [LOCAL], α=[0.000,0.000,0.000,0.000,0.231,0.000,1.364,0.518,0.000,0.000,10.234,0.000,0.000,0.000,1.443,0.000,0.000,0.000,0.199,0.000,0.000,0.000,0.000,0.000,0.000,0.818,1.236,0.854,0.000,0.000]
  Iter 7: LB=21.660239  UB=23.420931  gap=7.52e-02
  Cut: intercept=-271.375901, π_x_range=[-420.0043, 293.0361]
  Mini-Benders[1] (mw): LB=21.660239, Z₀(α*)=21.738753, intercept=17.295062 (0.097s) [OMP=0.031 ISP-L=0.004 ISP-F=0.018 MW-L=0.018 MW-F=0.025]
  Mini-Benders[2] (mw): LB=21.738751, Z₀(α*)=21.738753, intercept=17.295062 (0.094s) [OMP=0.031 ISP-L=0.004 ISP-F=0.018 MW-L=0.016 MW-F=0.025]
  Mini-Benders[3] (mw): LB=21.738751, Z₀(α*)=21.738753, intercept=17.295062 (0.094s) [OMP=0.031 ISP-L=0.004 ISP-F=0.018 MW-L=0.016 MW-F=0.025]
  Mini-Benders[4] (mw): LB=21.738751, Z₀(α*)=21.738753, intercept=17.295062 (0.094s) [OMP=0.031 ISP-L=0.004 ISP-F=0.018 MW-L=0.016 MW-F=0.025]
  Mini-Benders[5]: LB stagnated, break
  α-step: Z₀=21.747090, α=[0.000,0.000,0.000,0.000,1.603,0.000,0.000,0.527,0.000,0.000,9.839,0.000,0.000,0.000,0.079,0.000,0.000,0.000,0.561,0.000,0.000,0.000,0.000,0.000,0.000,2.191,1.997,0.101,0.000,0.000]
  Alt-Benders[1] (mw): LB=21.740300, Z₀(α*)=-1.097907, intercept=14.253320 (0.094s) [OMP=0.033 ISP-L=0.003 ISP-F=0.015 MW-L=0.012 MW-F=0.029]
  Alt-Benders[2] (mw): LB=21.740300, Z₀(α*)=-1.097907, intercept=14.253320 (0.080s) [OMP=0.021 ISP-L=0.003 ISP-F=0.015 MW-L=0.011 MW-F=0.028]
  Alt-Benders[3] (mw): LB=21.740300, Z₀(α*)=-1.097907, intercept=14.253320 (0.080s) [OMP=0.021 ISP-L=0.003 ISP-F=0.015 MW-L=0.011 MW-F=0.028]
  Alt-Benders[4]: LB stagnated, break
  OMP re-solve: 0.000s

=== True-DRO Benders iter 8 ===
  OMP: t₀=21.740300, UB=23.420931, gap=7.18e-02, x=[0, 0, 0, 0, 0, 0, 1, 0, 0, 0, 0, 0, 0, 0, 0, 0, 0, 0, 0, 0, 0, 0, 0, 0, 0, 0, 0, 0, 0, 0] (0.000s)
  Sub: Z₀=22.477976 [LOCAL], α=[0.000,0.000,0.000,0.000,0.702,0.000,10.383,0.672,0.000,0.000,0.109,0.000,0.000,0.000,1.475,0.000,0.000,0.000,0.132,0.000,0.000,0.000,0.000,0.000,0.000,1.323,1.264,0.839,0.000,0.000]
  Iter 8: LB=21.740300  UB=23.420931  gap=7.18e-02
  Cut: intercept=-275.209178, π_x_range=[-420.7384, 297.6872]
  Mini-Benders[1] (mw): LB=21.747090, Z₀(α*)=5.011478, intercept=13.270104 (0.096s) [OMP=0.023 ISP-L=0.003 ISP-F=0.022 MW-L=0.014 MW-F=0.030]
  Mini-Benders[2] (mw): LB=21.747090, Z₀(α*)=5.011478, intercept=13.270104 (0.101s) [OMP=0.031 ISP-L=0.003 ISP-F=0.022 MW-L=0.013 MW-F=0.030]
  Mini-Benders[3] (mw): LB=21.747090, Z₀(α*)=5.011478, intercept=13.270104 (0.102s) [OMP=0.032 ISP-L=0.003 ISP-F=0.022 MW-L=0.013 MW-F=0.030]
  Mini-Benders[4]: LB stagnated, break
  α-step: Z₀=21.681032, α=[0.000,0.000,0.000,0.000,2.388,0.000,0.000,3.099,0.000,0.000,4.354,0.000,0.000,0.000,2.995,0.000,0.000,0.000,1.381,0.000,0.000,0.000,0.000,0.000,0.000,2.681,0.000,0.000,0.000,0.000]
  Alt-Benders[1] (mw): LB=21.747090, Z₀(α*)=21.681032, intercept=17.237343 (0.099s) [OMP=0.032 ISP-L=0.003 ISP-F=0.017 MW-L=0.016 MW-F=0.029]
  Alt-Benders[2] (mw): LB=21.747090, Z₀(α*)=21.681032, intercept=17.237343 (0.099s) [OMP=0.033 ISP-L=0.003 ISP-F=0.017 MW-L=0.015 MW-F=0.029]
  Alt-Benders[3] (mw): LB=21.747090, Z₀(α*)=21.681032, intercept=17.237343 (0.099s) [OMP=0.033 ISP-L=0.003 ISP-F=0.017 MW-L=0.015 MW-F=0.029]
  Alt-Benders[4]: LB stagnated, break
  OMP re-solve: 0.000s

=== True-DRO Benders iter 9 ===
  OMP: t₀=21.747090, UB=23.420931, gap=7.15e-02, x=[0, 0, 0, 0, 0, 0, 0, 0, 0, 0, 1, 0, 0, 0, 0, 0, 0, 0, 0, 0, 0, 0, 0, 0, 0, 0, 0, 0, 0, 0] (0.000s)
  Sub: Z₀=22.393754, α=[0.000,0.000,0.000,0.000,0.000,0.000,0.486,0.000,0.000,0.000,11.321,0.000,0.000,0.000,1.984,0.000,0.000,0.000,0.631,0.000,0.000,0.000,0.000,0.000,0.000,2.352,0.000,0.123,0.000,0.000]
  Iter 9: LB=21.747090  UB=22.393754  gap=2.89e-02
  Cut: intercept=15.118813, π_x_range=[-39.5588, 7.2749]
  Sherali-Cut: intercept=16.573801, π_x_range=[-34.1512, 5.8200]
  Mini-Benders[1] (mw): LB=21.783011, Z₀(α*)=-8.600751, intercept=16.046745 (0.097s) [OMP=0.033 ISP-L=0.004 ISP-F=0.016 MW-L=0.016 MW-F=0.027]
  Mini-Benders[2] (mw): LB=21.783011, Z₀(α*)=-8.600751, intercept=16.046745 (0.089s) [OMP=0.027 ISP-L=0.003 ISP-F=0.015 MW-L=0.015 MW-F=0.027]
  Mini-Benders[3] (mw): LB=21.783011, Z₀(α*)=-8.600751, intercept=16.046745 (0.089s) [OMP=0.027 ISP-L=0.003 ISP-F=0.015 MW-L=0.015 MW-F=0.026]
  Mini-Benders[4]: LB stagnated, break
  α-step: Z₀=21.783011, α=[0.000,0.000,0.000,0.000,0.391,0.000,0.000,11.154,0.000,0.000,0.000,0.000,0.000,0.000,1.498,0.000,0.000,0.000,0.000,0.000,0.000,0.000,0.000,0.000,0.000,2.617,1.104,0.134,0.000,0.000]
  Alt-Benders[1] (mw): LB=21.783011, Z₀(α*)=22.173021, intercept=15.803467 (0.093s) [OMP=0.026 ISP-L=0.004 ISP-F=0.019 MW-L=0.018 MW-F=0.024]
  Alt-Benders[2] (mw): LB=21.829882, Z₀(α*)=-3.035548, intercept=16.154924 (0.100s) [OMP=0.033 ISP-L=0.005 ISP-F=0.016 MW-L=0.010 MW-F=0.036]
  Alt-Benders[3] (mw): LB=21.829882, Z₀(α*)=-3.035548, intercept=16.154924 (0.107s) [OMP=0.031 ISP-L=0.004 ISP-F=0.016 MW-L=0.018 MW-F=0.036]
  Alt-Benders[4] (mw): LB=21.829882, Z₀(α*)=-3.035548, intercept=16.154924 (0.107s) [OMP=0.031 ISP-L=0.004 ISP-F=0.016 MW-L=0.018 MW-F=0.036]
  Alt-Benders[5]: LB stagnated, break
  OMP re-solve: 0.000s

=== True-DRO Benders iter 10 ===
  OMP: t₀=21.829882, UB=22.393754, gap=2.52e-02, x=[0, 0, 0, 0, 0, 0, 0, 0, 0, 0, 0, 0, 0, 0, 0, 0, 0, 0, 0, 0, 0, 0, 0, 0, 0, 0, 0, 1, 0, 0] (0.000s)
  Sub: Z₀=22.378815 [LOCAL], α=[0.000,0.000,0.000,0.000,0.393,0.000,1.146,0.266,0.000,0.000,0.000,0.000,0.000,0.000,1.323,0.000,0.000,0.000,0.000,0.000,0.000,0.000,0.000,0.000,0.000,1.551,1.475,10.744,0.000,0.000]
  Iter 10: LB=21.829882  UB=22.393754  gap=2.52e-02
  Cut: intercept=-275.000298, π_x_range=[-421.3326, 297.3791]
  Mini-Benders[1] (mw): LB=22.052367, Z₀(α*)=-7.344769, intercept=15.792439 (0.098s) [OMP=0.031 ISP-L=0.004 ISP-F=0.016 MW-L=0.017 MW-F=0.029]
  Mini-Benders[2] (mw): LB=22.052367, Z₀(α*)=-7.344769, intercept=15.792439 (0.097s) [OMP=0.032 ISP-L=0.003 ISP-F=0.016 MW-L=0.016 MW-F=0.029]
  Mini-Benders[3] (mw): LB=22.052367, Z₀(α*)=-7.344769, intercept=15.792439 (0.098s) [OMP=0.032 ISP-L=0.003 ISP-F=0.016 MW-L=0.016 MW-F=0.029]
  Mini-Benders[4]: LB stagnated, break
  α-step: Z₀=21.287471, α=[0.000,0.000,0.000,0.000,11.773,0.000,0.113,0.875,0.000,0.000,0.664,0.000,0.000,0.000,0.002,0.000,0.000,0.000,0.000,0.000,0.000,0.000,0.000,0.000,0.000,2.056,1.414,0.000,0.000,0.000]
  Alt-Benders[1] (mw): LB=22.052367, Z₀(α*)=21.619428, intercept=17.277176 (0.116s) [OMP=0.032 ISP-L=0.004 ISP-F=0.018 MW-L=0.020 MW-F=0.041]
  Alt-Benders[2] (mw): LB=22.052367, Z₀(α*)=21.619428, intercept=17.277176 (0.115s) [OMP=0.032 ISP-L=0.003 ISP-F=0.018 MW-L=0.019 MW-F=0.041]
  Alt-Benders[3] (mw): LB=22.052367, Z₀(α*)=21.619428, intercept=17.277176 (0.117s) [OMP=0.032 ISP-L=0.003 ISP-F=0.018 MW-L=0.020 MW-F=0.041]
  Alt-Benders[4]: LB stagnated, break
  OMP re-solve: 0.000s

=== True-DRO Benders iter 11 ===
  OMP: t₀=22.052367, UB=22.393754, gap=1.52e-02, x=[0, 0, 0, 0, 1, 0, 0, 0, 0, 0, 0, 0, 0, 0, 0, 0, 0, 0, 0, 0, 0, 0, 0, 0, 0, 0, 0, 0, 0, 0] (0.000s)
  Sub: Z₀=22.052367 [LOCAL], α=[0.000,0.000,0.000,0.000,11.466,0.000,1.120,0.252,0.000,0.000,0.000,0.000,0.000,0.000,1.829,0.000,0.000,0.000,0.000,0.000,0.000,0.000,0.000,0.000,0.000,0.548,0.930,0.752,0.000,0.000]
  Iter 11: LB=22.052367  UB=22.393754  gap=1.52e-02
  Cut: intercept=-273.685137, π_x_range=[-421.1946, 295.7375]
  Mini-Benders[1] (mw): LB=22.052367, Z₀(α*)=22.202898, intercept=17.587416 (0.111s) [OMP=0.032 ISP-L=0.004 ISP-F=0.017 MW-L=0.016 MW-F=0.041]
  Mini-Benders[2] (mw): LB=22.173020, Z₀(α*)=-7.844828, intercept=14.830599 (0.099s) [OMP=0.035 ISP-L=0.004 ISP-F=0.017 MW-L=0.012 MW-F=0.029]
  Mini-Benders[3] (mw): LB=22.173020, Z₀(α*)=-7.844828, intercept=14.830599 (0.094s) [OMP=0.027 ISP-L=0.004 ISP-F=0.017 MW-L=0.017 MW-F=0.029]
  Mini-Benders[4] (mw): LB=22.173020, Z₀(α*)=-7.844828, intercept=14.830599 (0.094s) [OMP=0.027 ISP-L=0.004 ISP-F=0.017 MW-L=0.017 MW-F=0.029]
  Mini-Benders[5]: LB stagnated, break
  α-step: Z₀=21.783011, α=[0.000,0.000,0.000,0.000,0.391,0.000,0.000,11.154,0.000,0.000,0.000,0.000,0.000,0.000,1.498,0.000,0.000,0.000,0.000,0.000,0.000,0.000,0.000,0.000,0.000,2.617,1.104,0.134,0.000,0.000]
  Alt-Benders[1] (mw): LB=22.173020, Z₀(α*)=22.173021, intercept=15.803467 (0.093s) [OMP=0.027 ISP-L=0.004 ISP-F=0.019 MW-L=0.018 MW-F=0.024]
  Alt-Benders[2] (mw): LB=22.173020, Z₀(α*)=22.173021, intercept=15.803467 (0.083s) [OMP=0.027 ISP-L=0.002 ISP-F=0.019 MW-L=0.010 MW-F=0.024]
  Alt-Benders[3] (mw): LB=22.173020, Z₀(α*)=22.173021, intercept=15.803467 (0.084s) [OMP=0.027 ISP-L=0.002 ISP-F=0.019 MW-L=0.009 MW-F=0.024]
  Alt-Benders[4]: LB stagnated, break
  OMP re-solve: 0.000s

=== True-DRO Benders iter 12 ===
  OMP: t₀=22.173020, UB=22.393754, gap=9.86e-03, x=[0, 0, 0, 0, 0, 0, 0, 1, 0, 0, 0, 0, 0, 0, 0, 0, 0, 0, 0, 0, 0, 0, 0, 0, 0, 0, 0, 0, 0, 0] (0.000s)
  Sub: Z₀=22.538257, α=[0.000,0.000,0.000,0.000,0.626,0.000,0.005,11.519,0.000,0.000,0.000,0.000,0.000,0.000,1.503,0.000,0.000,0.000,0.000,0.000,0.000,0.000,0.000,0.000,0.000,2.978,0.134,0.134,0.000,0.000]
  Iter 12: LB=22.173020  UB=22.393754  gap=9.86e-03
  Cut: intercept=16.161521, π_x_range=[-40.7850, 6.3767]
  Sherali-Cut: intercept=16.161504, π_x_range=[-34.0682, 6.3768]
  Mini-Benders[1] (mw): LB=22.202897, Z₀(α*)=-9.118731, intercept=15.045024 (0.102s) [OMP=0.034 ISP-L=0.004 ISP-F=0.017 MW-L=0.013 MW-F=0.032]
  Mini-Benders[2] (mw): LB=22.202897, Z₀(α*)=-9.118731, intercept=15.045024 (0.106s) [OMP=0.031 ISP-L=0.004 ISP-F=0.017 MW-L=0.020 MW-F=0.032]
  Mini-Benders[3] (mw): LB=22.202897, Z₀(α*)=-9.118731, intercept=15.045024 (0.105s) [OMP=0.032 ISP-L=0.004 ISP-F=0.017 MW-L=0.019 MW-F=0.032]
  Mini-Benders[4]: LB stagnated, break
  α-step: Z₀=21.287471, α=[0.000,0.000,0.000,0.000,11.773,0.000,0.113,0.875,0.000,0.000,0.664,0.000,0.000,0.000,0.002,0.000,0.000,0.000,0.000,0.000,0.000,0.000,0.000,0.000,0.000,2.056,1.414,0.000,0.000,0.000]
  Alt-Benders[1] (mw): LB=22.202897, Z₀(α*)=21.619428, intercept=17.277176 (0.120s) [OMP=0.030 ISP-L=0.004 ISP-F=0.019 MW-L=0.021 MW-F=0.044]
  Alt-Benders[2] (mw): LB=22.202897, Z₀(α*)=21.619428, intercept=17.277176 (0.118s) [OMP=0.029 ISP-L=0.004 ISP-F=0.019 MW-L=0.021 MW-F=0.043]
  Alt-Benders[3] (mw): LB=22.202897, Z₀(α*)=21.619428, intercept=17.277176 (0.121s) [OMP=0.030 ISP-L=0.004 ISP-F=0.019 MW-L=0.021 MW-F=0.045]
  Alt-Benders[4]: LB stagnated, break
  OMP re-solve: 0.000s

=== True-DRO Benders iter 13 ===
  OMP: t₀=22.202897, UB=22.393754, gap=8.52e-03, x=[0, 0, 0, 0, 1, 0, 0, 0, 0, 0, 0, 0, 0, 0, 0, 0, 0, 0, 0, 0, 0, 0, 0, 0, 0, 0, 0, 0, 0, 0] (0.000s)
  Sub: Z₀=22.052367 [LOCAL], α=[0.000,0.000,0.000,0.000,11.466,0.000,1.120,0.252,0.000,0.000,0.000,0.000,0.000,0.000,1.829,0.000,0.000,0.000,0.000,0.000,0.000,0.000,0.000,0.000,0.000,0.548,0.930,0.752,0.000,0.000]
  Iter 13: LB=22.202897  UB=22.393754  gap=8.52e-03
  Cut: intercept=-273.685137, π_x_range=[-421.1946, 295.7375]
  Mini-Benders[1] (mw): LB=22.202897, Z₀(α*)=22.202898, intercept=17.587416 (0.116s) [OMP=0.030 ISP-L=0.004 ISP-F=0.019 MW-L=0.018 MW-F=0.044]
  Mini-Benders[2] (mw): LB=22.202897, Z₀(α*)=22.202898, intercept=17.587416 (0.109s) [OMP=0.029 ISP-L=0.003 ISP-F=0.018 MW-L=0.011 MW-F=0.046]
  Mini-Benders[3]: LB stagnated, break
  α-step: Z₀=22.202898, α=[0.000,0.000,0.000,0.000,10.917,0.000,1.669,0.252,0.000,0.000,0.000,0.000,0.000,0.000,2.378,0.000,0.000,0.000,0.000,0.000,0.000,0.000,0.000,0.000,0.000,0.000,0.000,1.682,0.000,0.000]
  Alt-Benders[1] (mw): LB=22.202898, Z₀(α*)=22.202898, intercept=17.587416 (0.109s) [OMP=0.029 ISP-L=0.003 ISP-F=0.019 MW-L=0.012 MW-F=0.044]
  Alt-Benders[2] (mw): LB=22.202898, Z₀(α*)=22.202898, intercept=17.587416 (0.108s) [OMP=0.030 ISP-L=0.003 ISP-F=0.019 MW-L=0.012 MW-F=0.042]
  Alt-Benders[3]: LB stagnated, break
  OMP re-solve: 0.000s

=== True-DRO Benders iter 14 ===
  OMP: t₀=22.202898, UB=22.393754, gap=8.52e-03, x=[0, 0, 0, 0, 1, 0, 0, 0, 0, 0, 0, 0, 0, 0, 0, 0, 0, 0, 0, 0, 0, 0, 0, 0, 0, 0, 0, 0, 0, 0] (0.000s)
  Sub: Z₀=22.052367 [LOCAL], α=[0.000,0.000,0.000,0.000,11.466,0.000,1.120,0.252,0.000,0.000,0.000,0.000,0.000,0.000,1.829,0.000,0.000,0.000,0.000,0.000,0.000,0.000,0.000,0.000,0.000,0.548,0.930,0.752,0.000,0.000]
  Iter 14: LB=22.202898  UB=22.393754  gap=8.52e-03
  Cut: intercept=-273.685137, π_x_range=[-421.1946, 295.7375]
  Mini-Benders[1] (mw): LB=22.202898, Z₀(α*)=22.202898, intercept=17.587416 (0.107s) [OMP=0.029 ISP-L=0.003 ISP-F=0.018 MW-L=0.010 MW-F=0.044]
  Mini-Benders[2] (mw): LB=22.202898, Z₀(α*)=22.202898, intercept=17.587416 (0.115s) [OMP=0.032 ISP-L=0.003 ISP-F=0.021 MW-L=0.012 MW-F=0.045]
  Mini-Benders[3]: LB stagnated, break
  α-step: Z₀=22.202898, α=[0.000,0.000,0.000,0.000,10.917,0.000,1.669,0.252,0.000,0.000,0.000,0.000,0.000,0.000,2.378,0.000,0.000,0.000,0.000,0.000,0.000,0.000,0.000,0.000,0.000,0.000,0.000,1.682,0.000,0.000]
  Alt-Benders[1] (mw): LB=22.202898, Z₀(α*)=22.202898, intercept=17.587416 (0.105s) [OMP=0.030 ISP-L=0.003 ISP-F=0.019 MW-L=0.009 MW-F=0.043]
  Alt-Benders[2] (mw): LB=22.202898, Z₀(α*)=22.202898, intercept=17.587416 (0.110s) [OMP=0.030 ISP-L=0.003 ISP-F=0.019 MW-L=0.013 MW-F=0.044]
  Alt-Benders[3]: LB stagnated, break
  OMP re-solve: 0.000s

=== True-DRO Benders iter 15 ===
  OMP: t₀=22.202898, UB=22.393754, gap=8.52e-03, x=[0, 0, 0, 0, 1, 0, 0, 0, 0, 0, 0, 0, 0, 0, 0, 0, 0, 0, 0, 0, 0, 0, 0, 0, 0, 0, 0, 0, 0, 0] (0.000s)
  Sub: Z₀=22.202898, α=[0.000,0.000,0.000,0.000,10.917,0.000,1.669,0.252,0.000,0.000,0.000,0.000,0.000,0.000,2.378,0.000,0.000,0.000,0.000,0.000,0.000,0.000,0.000,0.000,0.000,0.000,0.000,1.682,0.000,0.000]
  Iter 15: LB=22.202898  UB=22.202898  gap=6.87e-10
True-DRO Benders converged at iter 15 (gap=6.87e-10)
  Wall time: 31.99 sec
  OMP  time: mean=0.024s, median=0.030s, max=0.077s
  Sub  time (exact): mean=0.542s, median=0.570s, q90=0.643s, max=0.678s (n=5/15)

Robust: Z₀=22.202898, iters=15, time=45.0s
x_rob arcs = [5]

============================================================
x_nom arcs: [11]
x_rob arcs: [5]
SAME? false
============================================================
